c ---- [ banner ] ------------------------------------------------------------
c
c KISSAT SAT Solver
c Copyright (c) 2019-2020 Armin Biere JKU Linz
c 
c Version 1.0.3 1fd619e70bfb79fe0b7e1ceaec0301abc41b5460
c gcc (Ubuntu 9.4.0-1ubuntu1~20.04.1) 9.4.0 -g -W -Wall -O3 -DNEMBEDDED -DNDEBUG -DPREF_HEURISTIC -DNMETRICS -DNSTATISTICS
c Wed Apr 5 11:45:17 IST 2023 Linux Karthikeya 5.15.0-69-generic x86_64
c
c ---- [ parsing ] -----------------------------------------------------------
c
c opened and reading DIMACS file:
c 
c   ../../../benchmark_instances_2022/7993005e2949524b293b216ed9c65126-cfi-rigid-s2-0064-03-or_2_shuffle_all.cnf
c 
c parsed 'p cnf 8192 15169408' header
c closing input after reading 193282474 bytes (184 MB)
c finished parsing after 3.12 seconds
c
c ---- [ solving ] -----------------------------------------------------------
c
c  seconds  reductions redundant irredundant
c          MB   restarts    trail        variables
c           level  conflicts   glue           remaining
c
c *  3.12 192 0  0  0   0   0 0% 0 15169408 8192 100%
c {  3.12 192 0  0  0   0   0 0% 0 15169408 8192 100%
c -  3.33 196 27  1 28 300 245 85% 4 15169408 8192 100%
c -  3.55 203 31  2 104 900 787 86% 4 15169408 8192 100%
c }  3.56 204 34  2 140 1001 887 85% 6 15169408 8192 100%
c [  3.56 204 0  2 140 1001 887 0% 0 15169408 8192 100%
c O  3.75 204 63  2 140 1002 888 94% 5 15169408 8192 100%
c ]  3.82 205 351  2 140 1486 1350 79% 104 15169408 8192 100%
c {  3.82 205 34  2 140 1486 1350 85% 6 15169408 8192 100%
c -  4.06 207 36  3 226 1800 1175 85% 6 15169408 8192 100%
c -  4.44 220 37  4 437 3000 1817 84% 7 15169408 8192 100%
c I  4.44 220 37  4 437 3004 1821 84% 7 15169408 8192 100%
c }  4.49 220 36  4 445 3486 2287 84% 7 15169408 8192 100%
c [  4.49 220 351  4 445 3486 2287 79% 104 15169408 8192 100%
c -  4.99 223 574  5 445 4500 2213 80% 161 15169408 8192 100%
c ]  5.28 224 1263  5 446 4921 2563 83% 198 15169408 8192 100%
c {  5.29 224 36  5 446 4921 2563 84% 7 15169408 8192 100%
c B  5.60 227 35  5 512 6005 3594 85% 7 15169408 8192 100%
c -  5.89 229 34  6 515 6300 2718 85% 6 15169408 8192 100%
c -  6.49 247 35  7 890 8400 3803 84% 7 15169408 8192 100%
c
c  seconds   reductions   redundant   irredundant
c          MB    restarts        trail        variables
c           level    conflicts      glue           remaining
c
c i  6.57 247 35  7 942 8707 4047 84% 8 15169408 8191 100%
c }  6.71 247 42  7 992 9921 5211 85% 7 15169408 8191 100%
c [  6.71 247 1263  7 992 9921 5211 83% 198 15169408 8191 100%
c W  8.12 247 1180  7 992 10006 5255 83% 187 15165716 8191 100%
c -  8.71 248 935  8 992 10800 4302 81% 178 15165716 8191 100%
c ]  9.23 251 561  8 994 13396 6650 81% 127 15165716 8191 100%
c {  9.23 251 42  8 994 13396 6650 85% 7 15165716 8191 100%
c -  9.45 244 43  9 1022 13501 4084 85% 7 15165716 8191 100%
c O  9.85 245 42  9 1144 15008 5544 85% 7 15165716 8191 100%
c - 10.23 265 42 10 1241 16501 5340 85% 7 15165716 8191 100%
c i 10.28 271 43 10 1282 16713 5532 85% 7 15165716 8190 100%
c - 10.72 295 54 11 1452 19801 7296 85% 8 15161978 8190 100%
c B 10.87 295 99 11 1518 21270 8140 84% 11 15161978 8190 100%
c } 11.10 298 109 11 1698 23396 10165 84% 17 15161978 8190 100%
c [ 11.10 298 561 11 1698 23396 10165 81% 127 15161978 8190 100%
c - 11.27 298 561 12 1698 23401 8007 81% 127 15161978 8190 100%
c - 12.14 302 980 13 1700 27301 7225 78% 183 15161978 8190 100%
c W 13.32 302 1022 13 1701 28271 8133 78% 215 15161978 8190 100%
c u 13.71 303 952 13 1702 29405 9078 78% 206 15161978 8190 100%
c v 13.81 303 952 13 1702 29405 9078 78% 206 15161978 8190 100%
c
c  seconds    reductions     redundant     irredundant
c          MB      restarts         trail          variables
c            level      conflicts       glue            remaining
c
c ] 13.85 303 939 13 1702 29653 9285 78% 203 15161978 8190 100%
c { 13.85 303 109 13 1702 29653 9285 84% 17 15161978 8190 100%
c - 14.20 303 102 14 1714 31501 7457 84% 16 15161978 8190 100%
c - 15.04 370 94 15 1902 36001 9570 84% 15 15161978 8190 100%
c I 15.08 374 93 15 1906 36273 9837 84% 15 15161978 8190 100%
c i 15.60 395 84 15 2016 40445 13856 84% 14 15161978 8189 100%
c - 15.86 395 83 16 2019 40801 11828 84% 13 15158287 8189 100%
c i 16.10 395 81 16 2101 43006 13904 84% 13 15158287 8188 100%
c B 16.40 396 83 16 2273 45274 16091 84% 16 15158287 8188 100%
c - 16.64 397 83 17 2286 45901 13396 84% 16 15154595 8188 100%
c ^ 16.95 397 83 17 2286 46250 13736 84% 16 15154595 8188 100%
c } 17.05 397 83 17 2288 46653 14112 84% 15 15154595 8188 100%
c [ 17.05 397 939 17 2288 46653 14112 78% 203 15154595 8188 100%
c u 17.63 397 857 17 2290 49005 15986 78% 184 15154595 8188 100%
c v 17.78 398 857 17 2290 49005 15986 78% 184 15154595 8188 100%
c - 18.41 402 888 18 2291 51302 12630 78% 195 15154595 8188 100%
c B 20.19 402 778 18 2294 55276 16115 77% 192 15154595 8188 100%
c ] 20.41 402 728 18 2294 56542 17198 77% 180 15154595 8188 100%
c { 20.41 402 83 18 2294 56542 17198 84% 15 15154595 8188 100%
c - 20.63 402 83 19 2319 57002 11542 84% 15 15154595 8188 100%
c
c  seconds   reductions      redundant    irredundant
c          MB     restarts          trail         variables
c           level      conflicts        glue           remaining
c
c i 20.79 402 82 19 2421 58288 12723 84% 15 15154595 8187 100%
c i 21.18 402 79 19 2520 62155 16406 84% 15 15154595 8186 100%
c - 21.46 402 79 20 2533 63002 13539 84% 15 15147260 8186 100%
c # 21.78 402 78 20 2656 66282 16471 84% 14 15147260 8186 100%
c - 22.32 415 76 21 2760 69302 16827 84% 14 15147260 8186 100%
c i 22.48 430 75 21 2763 70242 17708 84% 14 15147260 8185 100%
c i 22.98 471 75 21 2936 73483 20809 84% 14 15147260 8184 100%
c u 23.20 472 75 21 2937 73505 20655 84% 14 15147260 8184 100%
c v 23.41 474 75 21 2937 73505 20551 84% 14 15147260 8184 100%
c - 24.33 496 73 22 2976 75902 19149 84% 13 15139879 8184 100%
c i 24.53 512 72 22 3073 77080 20226 84% 13 15139879 8183 100%
c B 24.68 524 72 22 3115 78283 21380 84% 13 15139879 8183 100%
c } 25.31 586 71 22 3351 82544 25467 84% 13 15139879 8183 100%
c [ 25.31 586 728 22 3351 82544 25467 77% 180 15139879 8183 100%
c - 25.53 587 721 23 3351 82802 21018 77% 178 15136190 8183 100%
c - 27.59 594 703 24 3356 90004 19321 76% 187 15136190 8183 100%
c W 28.91 594 692 24 3357 91284 20484 76% 188 15136190 8183 100%
c ^ 30.01 594 758 24 3358 95253 23664 77% 251 15136190 8183 100%
c ] 30.19 594 753 24 3358 95854 24196 77% 250 15136190 8183 100%
c { 30.19 594 71 24 3358 95854 24196 84% 13 15136190 8183 100%
c
c  seconds   reductions      redundant    irredundant
c          MB     restarts          trail         variables
c           level      conflicts        glue           remaining
c
c - 30.66 600 71 25 3492 97505 17683 84% 13 15136190 8183 100%
c i 31.57 600 75 25 3843 102248 21805 84% 14 15136190 8182 100%
c 3 31.71 600 74 25 3871 102906 22440 84% 14 15136190 8182 100%
c f 31.79 600 74 25 3871 102906 22446 84% 14 15136190 8182 100%
c u 31.94 601 74 25 3871 102906 22376 84% 14 15136190 8182 100%
c v 32.22 601 74 25 3871 102906 22359 84% 14 15136190 8182 100%
c F 32.83 601 74 25 3902 105287 24625 84% 13 15136190 8182 100%
c - 33.03 601 74 26 3902 105308 20932 84% 13 15132456 8182 100%
c i 33.73 601 73 26 4258 109441 24739 84% 13 15132456 8181 100%
c i 34.29 601 74 26 4537 112967 28104 84% 14 15132456 8180 100%
c - 34.57 601 74 27 4587 113408 24399 84% 14 15125130 8180 100%
c i 35.10 601 73 27 4713 116545 27404 84% 13 15125130 8179 100%
c B 35.81 602 73 27 4881 120288 30318 84% 13 15121487 8179 100%
c - 36.19 602 74 28 5051 121808 26533 84% 13 15121487 8179 100%
c i 36.36 602 74 28 5148 122626 27266 84% 13 15121487 8178 100%
c i 37.15 654 75 28 5457 127337 31812 84% 14 15121487 8177 100%
c - 38.14 703 78 29 5686 130508 29032 84% 14 15114110 8177 100%
c i 38.55 720 78 29 5788 132422 30820 84% 14 15114110 8176 100%
c } 38.61 725 78 29 5789 132855 31244 84% 14 15114110 8176 100%
c [ 38.61 725 753 29 5789 132855 31244 77% 250 15114110 8176 100%
c
c  seconds    reductions       redundant     irredundant
c          MB      restarts           trail          variables
c            level      conflicts         glue            remaining
c
c W 40.46 728 794 29 5791 136289 34136 77% 263 15110467 8176 100%
c 3 41.08 730 819 29 5792 137206 35006 76% 276 15110467 8176 100%
c u 41.38 731 819 29 5792 137206 34705 76% 276 15110467 8176 100%
c v 41.73 732 819 29 5792 137206 34577 76% 276 15110467 8176 100%
c - 43.34 735 801 30 5794 139508 27964 76% 274 15110467 8176 100%
c - 45.79 736 698 31 5798 148809 26151 76% 242 15110467 8176 100%
c ] 46.00 736 689 31 5799 149780 26941 76% 237 15110467 8176 100%
c { 46.00 736 78 31 5799 149780 26941 84% 14 15110467 8176 100%
c O 46.81 777 77 31 6036 153293 30312 84% 14 15110467 8176 100%
c i 47.72 861 75 31 6371 157299 34128 84% 14 15110467 8175 100%
c - 48.10 875 77 32 6458 158409 29588 84% 14 15106785 8175 100%
c i 48.66 934 77 32 6549 161262 32319 84% 14 15106785 8174 100%
c i 48.96 950 83 32 6619 163331 33975 84% 15 15106785 8173 100%
c - 50.20 983 82 33 6756 168310 34443 84% 14 15099368 8173 100%
c ^ 50.51 983 82 33 6778 168754 34861 84% 14 15099368 8173 100%
c i 50.77 983 82 33 6834 169509 35542 84% 14 15099368 8172 100%
c B 51.02 983 81 33 6913 171294 37240 84% 14 15099368 8172 100%
c 3 51.95 983 80 33 7151 176406 42118 84% 14 15099368 8172 100%
c u 52.31 985 80 33 7151 176406 41770 84% 14 15099368 8172 100%
c v 52.76 985 80 33 7151 176406 41620 84% 14 15099368 8172 100%
c
c  seconds   reductions       redundant    irredundant
c          MB     restarts           trail         variables
c           level      conflicts         glue           remaining
c
c i 53.27 986 79 33 7159 176663 41683 84% 14 15099368 8171 100%
c - 53.89 986 79 34 7232 178510 36776 84% 14 15091959 8171 100%
c i 54.33 986 78 34 7290 180220 38414 84% 14 15091959 8170 100%
c i 56.70 986 78 34 7711 187745 45518 84% 14 15091959 8169 100%
c - 57.23 987 78 35 7753 189010 39383 84% 14 15084600 8169 100%
c W 59.24 988 77 35 7802 190295 40630 84% 14 15084600 8169 100%
c i 59.62 988 77 35 7894 191631 41911 84% 14 15084600 8168 100%
c i 61.54 993 77 35 8214 197417 47430 84% 14 15084600 8167 100%
c } 62.28 995 77 35 8305 199781 49561 84% 14 15084600 8167 100%
c [ 62.28 995 689 35 8305 199781 49561 76% 237 15084600 8167 100%
c - 62.73 995 688 36 8305 199812 42303 76% 237 15077195 8167 100%
c i 63.53 995 666 36 8307 202216 44348 76% 230 15077195 8166 100%
c I 66.68 999 651 36 8311 210296 51552 77% 215 15077195 8166 100%
c - 67.16 1000 643 37 8311 210912 40403 77% 212 15073513 8166 100%
c 3 70.33 1000 603 37 8317 220512 48710 77% 198 15073513 8166 100%
c u 70.81 1000 603 37 8317 220512 48649 77% 198 15073513 8166 100%
c v 71.28 1001 603 37 8317 220512 48649 77% 198 15073513 8166 100%
c - 72.73 1001 589 38 8318 222312 37751 78% 194 15073513 8166 100%
c ] 74.84 1001 563 38 8319 229684 43908 78% 187 15073513 8166 100%
c { 74.84 1001 77 38 8319 229684 43908 84% 14 15073513 8166 100%
c
c  seconds    reductions       redundant    irredundant
c           MB     restarts           trail         variables
c            level      conflicts         glue           remaining
c
c B 75.12 1001 76 38 8395 231297 45467 84% 14 15073513 8166 100%
c - 76.01 1002 76 39 8477 234012 39537 84% 14 15073513 8166 100%
c i 77.96 1002 76 39 8949 238848 44093 84% 14 15073513 8165 100%
c i 79.36 1006 77 39 9313 245456 50370 84% 14 15073513 8164 100%
c - 79.71 1007 77 40 9330 246012 44567 84% 14 15066162 8164 100%
c i 80.36 1007 77 40 9532 248962 47264 84% 14 15066162 8163 100%
c W 82.48 1037 76 40 9656 253298 50741 84% 14 15062537 8163 100%
c i 82.95 1054 76 40 9766 255048 52413 84% 14 15062537 8162 100%
c i 83.50 1074 76 40 9872 257026 54240 84% 14 15062537 8161 100%
c - 84.05 1086 76 41 9895 258312 48975 84% 14 15055183 8161 100%
c i 84.40 1105 77 41 10046 259880 50468 84% 14 15055183 8160 100%
c ^ 86.46 1208 76 41 10421 266754 57000 84% 14 15051507 8160 100%
c i 86.64 1214 75 41 10421 267044 56949 84% 14 15051507 8159 100%
c 3 87.40 1247 75 41 10495 269515 59264 84% 14 15051507 8159 100%
c u 88.13 1248 75 41 10495 269515 58943 84% 14 15051507 8159 100%
c v 88.86 1250 75 41 10495 269515 58804 84% 14 15051507 8159 100%
c - 90.02 1271 75 42 10574 270912 52930 84% 14 15047740 8159 100%
c i 90.57 1293 75 42 10718 272229 54136 84% 14 15047740 8158 100%
c # 91.72 1327 75 42 10891 276299 58055 84% 14 15047740 8158 100%
c i 92.50 1351 75 42 11000 278772 60390 84% 14 15047740 8157 100%
c
c  seconds    reductions        redundant    irredundant
c           MB     restarts            trail         variables
c            level       conflicts         glue           remaining
c
c i 93.55 1403 74 42 11162 282874 64262 84% 14 15047740 8156 100%
c - 94.02 1413 74 43 11168 283813 55213 84% 14 15036752 8156 100%
c i 95.77 1502 74 43 11401 289236 60249 84% 14 15036752 8155 100%
c i 96.08 1511 74 43 11457 290267 61200 84% 14 15036752 8154 100%
c i 97.29 1575 75 43 11647 294565 65321 84% 14 15036752 8153 100%
c } 97.31 1575 75 43 11648 294685 65434 84% 14 15036752 8153 100%
c [ 97.31 1575 563 43 11648 294685 65434 78% 187 15036752 8153 100%
c - 98.38 1579 564 44 11650 297013 57095 78% 185 15025673 8153 100%
c B 99.80 1579 574 44 11652 300312 59961 78% 186 15025673 8153 100%
c - 104.88 1584 646 45 11657 310513 54308 77% 199 15025673 8153 100%
c 3 110.62 1585 773 45 11662 323418 65581 77% 225 15025673 8153 100%
c u 111.47 1585 773 45 11662 323418 65455 77% 225 15025673 8153 100%
c v 112.18 1588 773 45 11662 323418 65455 77% 225 15025673 8153 100%
c - 113.43 1589 766 46 11662 324313 51011 77% 224 15025673 8153 100%
c W 114.76 1589 758 46 11662 325314 51921 77% 222 15025673 8153 100%
c ] 117.41 1589 711 46 11666 332906 58243 77% 209 15025673 8153 100%
c { 117.41 1589 75 46 11666 332906 58243 84% 14 15025673 8153 100%
c i 118.36 1644 74 46 11817 335417 60590 84% 14 15025673 8152 99%
c - 119.36 1671 74 47 11879 338414 53871 84% 14 15021995 8152 99%
c i 119.75 1690 74 47 11982 339878 55228 84% 14 15021995 8151 99%
c
c  seconds     reductions        redundant    irredundant
c            MB     restarts            trail         variables
c             level       conflicts         glue           remaining
c
c i 120.46 1716 74 47 12091 343009 58147 84% 14 15021995 8150 99%
c i 121.43 1748 74 47 12299 346674 61682 84% 14 15021995 8149 99%
c i 122.23 1766 73 47 12419 349217 64019 84% 14 15021995 8148 99%
c F 123.01 1766 73 47 12445 351315 64012 84% 14 15007366 8148 99%
c - 123.62 1766 73 48 12491 352814 59894 84% 14 15007366 8148 99%
c i 123.87 1766 73 48 12537 353815 60740 84% 14 15007366 8147 99%
c i 124.09 1766 73 48 12576 354673 61408 84% 14 15007366 8146 99%
c i 126.48 1766 73 48 13059 361478 67856 84% 14 15007366 8145 99%
c i 127.12 1766 73 48 13248 363529 69829 84% 14 15007366 8144 99%
c i 127.87 1766 73 48 13440 366414 72552 84% 14 15007366 8143 99%
c - 128.58 1766 73 49 13539 367515 64735 84% 14 14989068 8143 99%
c i 130.64 1766 73 49 13819 373204 70058 84% 14 14989068 8142 99%
c i 131.33 1766 73 49 13928 375538 72207 84% 14 14989068 8141 99%
c B 132.10 1766 73 49 14019 378316 74856 84% 14 14989068 8141 99%
c 3 133.67 1769 72 49 14329 382218 78548 84% 14 14989068 8141 99%
c f 134.05 1769 72 49 14329 382218 78459 84% 14 14989068 8141 99%
c u 134.79 1770 72 49 14329 382218 77898 84% 14 14989068 8141 99%
c v 135.68 1772 72 49 14329 382218 77716 84% 14 14989068 8141 99%
c - 136.65 1773 72 50 14329 382515 68510 84% 14 14981677 8141 99%
c i 137.28 1773 72 50 14410 383550 69464 84% 14 14981677 8140 99%
c
c  seconds     reductions        redundant    irredundant
c            MB     restarts            trail         variables
c             level       conflicts         glue           remaining
c
c i 137.86 1773 73 50 14552 384905 70736 84% 14 14981677 8139 99%
c ^ 139.26 1773 72 50 14652 389254 74822 84% 14 14974349 8139 99%
c i 139.79 1773 72 50 14679 390236 75056 84% 14 14974349 8138 99%
c i 141.58 1774 72 50 14989 395059 79570 83% 14 14974349 8137 99%
c - 142.83 1777 71 51 15117 397815 72075 83% 14 14967025 8137 99%
c i 144.62 1777 71 51 15247 402219 76190 83% 14 14967025 8136 99%
c W 147.11 1777 71 51 15384 406317 79374 84% 14 14963404 8136 99%
c i 148.54 1777 72 51 15688 409406 82208 83% 14 14963404 8135 99%
c i 149.97 1780 71 51 15906 412495 85121 83% 14 14963404 8134 99%
c - 150.47 1781 72 52 15926 413418 75118 83% 14 14956131 8134 99%
c } 150.86 1781 71 52 15976 414906 76527 83% 14 14956131 8134 99%
c [ 150.86 1781 711 52 15976 414906 76527 77% 209 14956131 8134 99%
c i 155.92 1782 703 52 15982 425673 85714 77% 204 14956131 8133 99%
c - 158.06 1786 687 53 15984 429318 73543 77% 198 14952561 8133 99%
c O 160.69 1786 683 53 15988 435320 78611 77% 195 14952561 8133 99%
c - 165.95 1786 650 54 15990 445518 71242 78% 187 14952561 8133 99%
c 3 166.09 1786 648 54 15990 445918 71605 78% 186 14952561 8133 99%
c f 166.49 1786 648 54 15990 445918 71652 78% 186 14952561 8133 99%
c u 167.35 1786 648 54 15990 445918 71538 78% 186 14952561 8133 99%
c v 168.38 1787 648 54 15990 445918 71538 78% 186 14952561 8133 99%
c
c  seconds      reductions        redundant     irredundant
c            MB      restarts            trail          variables
c              level       conflicts         glue            remaining
c
c - 178.31 1789 660 55 15998 462018 71497 77% 193 14952561 8133 99%
c i 180.06 1789 652 55 16000 465175 74159 77% 191 14952561 8132 99%
c B 180.13 1789 652 55 16000 465342 74324 77% 191 14952561 8132 99%
c ] 181.17 1789 655 55 16002 467138 75989 77% 191 14952561 8132 99%
c { 181.17 1789 71 55 16002 467138 75989 83% 14 14952561 8132 99%
c i 182.05 1789 72 55 16094 470025 78687 83% 14 14952561 8131 99%
c i 184.15 1789 71 55 16440 475419 83637 83% 14 14952561 8130 99%
c - 185.33 1789 71 56 16536 478818 75467 83% 14 14941623 8130 99%
c i 187.62 1789 71 56 16924 484106 80477 83% 14 14941623 8129 99%
c i 189.87 1789 71 56 17247 490861 86962 83% 14 14941623 8128 99%
c i 191.35 1789 71 56 17409 494510 90357 83% 14 14941623 8127 99%
c - 192.14 1789 71 57 17474 495918 81712 84% 14 14930625 8127 99%
c W 193.48 1789 71 57 17480 496343 82098 84% 14 14930625 8127 99%
c i 195.28 1789 71 57 17595 500419 85960 84% 14 14930625 8126 99%
c i 197.74 1789 70 57 17821 506862 92061 84% 14 14930625 8125 99%
c - 200.75 1793 70 58 18088 513318 88622 84% 14 14923283 8125 99%
c 3 201.33 1793 70 58 18142 514518 89734 84% 14 14923283 8125 99%
c f 201.90 1793 70 58 18142 514518 89777 84% 14 14923283 8125 99%
c u 203.16 1793 70 58 18142 514518 89638 84% 14 14923283 8124 99%
c v 204.32 1795 70 58 18142 514518 89580 84% 14 14923283 8124 99%
c
c  seconds     reductions        redundant    irredundant
c            MB     restarts            trail         variables
c             level       conflicts         glue           remaining
c
c i 204.70 1795 70 58 18142 514518 89495 84% 14 14923283 8124 99%
c i 206.68 1796 70 58 18191 515557 90489 84% 14 14923283 8123 99%
c i 210.32 1890 69 58 18472 522698 97217 84% 13 14923283 8122 99%
c I 213.36 1990 69 58 18726 528344 102544 84% 13 14923283 8122 99%
c i 213.98 2009 69 58 18795 529124 103268 84% 13 14923283 8121 99%
c - 215.41 2027 69 59 18840 531019 92661 84% 13 14908583 8121 99%
c i 216.70 2044 69 59 18951 533027 94557 84% 13 14908583 8120 99%
c i 217.64 2071 69 59 19048 534299 95757 84% 14 14908583 8119 99%
c ! 218.95 2086 69 59 19119 536254 97580 84% 13 14901302 8119 99%
c i 222.59 2147 69 59 19415 541565 101528 84% 14 14901302 8118 99%
c i 225.09 2204 70 59 19692 546316 105912 84% 14 14901302 8117 99%
c i 225.86 2220 70 59 19803 547540 106959 84% 14 14901302 8116 99%
c - 226.86 2233 70 60 19888 549019 94734 84% 14 14890293 8116 99%
c i 227.64 2246 70 60 19945 550270 95884 84% 14 14890293 8115 99%
c i 228.90 2268 70 60 20008 552279 97773 84% 14 14890293 8114 99%
c i 230.03 2298 70 60 20147 554555 99906 84% 14 14890293 8113 99%
c i 230.77 2314 70 60 20212 556173 101452 84% 14 14890293 8112 99%
c i 233.08 2348 71 60 20397 560117 105126 83% 14 14890293 8111 99%
c B 233.90 2357 71 60 20437 561345 103845 84% 14 14872206 8111 99%
c - 236.86 2418 70 61 20652 567319 98054 84% 14 14872206 8111 99%
c
c  seconds     reductions        redundant    irredundant
c            MB     restarts            trail         variables
c             level       conflicts         glue           remaining
c
c } 237.29 2427 70 61 20685 568139 98812 84% 14 14872206 8111 99%
c [ 237.29 2427 655 61 20685 568139 98812 77% 191 14872206 8111 99%
c i 237.83 2427 651 61 20685 569130 99598 77% 190 14872206 8110 99%
c - 250.01 2434 608 62 20696 585919 96148 78% 179 14868470 8110 99%
c 3 251.61 2434 609 62 20697 588018 98000 78% 179 14868470 8110 99%
c f 252.46 2434 609 62 20697 588018 98072 78% 179 14868470 8110 99%
c u 253.99 2434 609 62 20697 588018 97894 78% 179 14868470 8110 99%
c v 255.38 2436 609 62 20697 588018 97892 78% 179 14868470 8110 99%
c i 258.24 2437 603 62 20698 590827 100275 78% 178 14868470 8109 99%
c W 263.01 2437 598 62 20699 595346 104039 78% 178 14864829 8109 99%
c - 269.56 2437 580 63 20702 604819 93024 78% 173 14864829 8109 99%
c i 277.57 2437 560 63 20709 616821 103154 78% 170 14864829 8108 99%
c - 281.66 2437 571 64 20712 624019 91658 77% 172 14861180 8108 99%
c # 286.40 2437 583 64 20714 630351 97177 77% 176 14861180 8108 99%
c ] 288.12 2437 576 64 20714 633260 99639 77% 175 14861180 8108 99%
c { 288.12 2437 70 64 20714 633260 99639 84% 14 14861180 8108 99%
c i 288.76 2448 70 64 20785 634499 100793 84% 14 14861180 8107 99%
c i 291.04 2521 70 64 20968 639131 105209 84% 14 14861180 8106 99%
c - 293.38 2557 70 65 21235 643519 95510 84% 14 14853872 8106 99%
c i 293.71 2562 70 65 21271 644142 96077 84% 14 14853872 8105 99%
c
c  seconds     reductions        redundant    irredundant
c            MB     restarts            trail         variables
c             level       conflicts         glue           remaining
c
c i 295.48 2609 70 65 21390 647872 99640 84% 14 14853872 8104 99%
c i 298.56 2726 70 65 21789 654001 105403 84% 14 14853872 8103 99%
c i 300.59 2777 70 65 21894 658198 109383 84% 14 14853872 8102 99%
c - 304.20 2845 71 66 22202 663319 103565 84% 14 14839266 8102 99%
c i 304.28 2845 71 66 22213 663377 103618 84% 14 14839266 8101 99%
c i 305.38 2861 71 66 22286 665405 105536 84% 14 14839266 8100 99%
c B 305.97 2870 71 66 22339 666352 106449 84% 14 14839266 8100 99%
c 3 306.11 2871 71 66 22354 666418 106514 84% 14 14839266 8100 99%
c f 307.17 2871 71 66 22354 666418 106510 84% 14 14839266 8099 99%
c u 310.72 2871 71 66 22354 666418 106057 84% 14 14839266 8098 99%
c v 312.24 2873 71 66 22354 666418 105704 84% 14 14839266 8098 99%
c i 312.69 2873 71 66 22354 666418 105576 84% 14 14839266 8098 99%
c i 315.51 2924 71 66 22515 670714 109593 84% 14 14839266 8097 99%
c i 317.49 2980 71 66 22681 674386 113050 84% 14 14839266 8096 99%
c i 318.73 3001 71 66 22772 676570 115103 83% 14 14839266 8095 99%
c i 322.55 3078 71 66 23026 683196 121415 84% 14 14839266 8094 99%
c - 323.04 3080 71 67 23034 683419 110058 84% 14 14810134 8094 99%
c i 324.49 3116 71 67 23208 686050 112549 84% 14 14810134 8093 99%
c i 327.55 3180 71 67 23425 691384 117659 84% 14 14810134 8092 99%
c i 328.39 3192 70 67 23491 692837 119013 84% 14 14810134 8091 99%
c
c  seconds     reductions        redundant     irredundant
c            MB     restarts             trail         variables
c             level       conflicts          glue           remaining
c
c i 330.12 3229 70 67 23622 695664 121646 84% 14 14810134 8090 99%
c W 335.93 3298 71 67 23918 703358 127119 84% 14 14795415 8090 99%
c - 336.67 3299 71 68 23967 703820 116181 84% 14 14795415 8090 99%
c i 338.77 3299 72 68 24144 706711 118868 84% 14 14795415 8089 99%
c i 342.25 3299 71 68 24364 711949 122147 84% 14 14791767 8088 99%
c i 345.95 3299 71 68 24522 717962 127856 84% 14 14791767 8087 99%
c i 347.87 3300 71 68 24791 720542 130258 84% 14 14791767 8086 99%
c - 350.44 3303 72 69 25019 724521 119816 84% 14 14780830 8086 99%
c i 350.45 3303 72 69 25019 724524 119818 84% 14 14780830 8085 99%
c i 356.68 3303 72 69 25434 733765 128453 84% 14 14780830 8084 99%
c i 358.09 3303 72 69 25581 735928 130484 84% 14 14780830 8083 99%
c i 359.80 3303 72 69 25661 738420 132874 84% 14 14780830 8082 99%
c F 361.55 3303 72 69 25758 741359 135677 84% 14 14780830 8082 99%
c - 364.50 3307 71 70 25982 745521 124532 84% 14 14766191 8082 99%
c i 364.69 3307 71 70 25994 745734 124698 84% 14 14766191 8081 99%
c i 366.34 3307 71 70 26124 748159 126929 84% 14 14766191 8080 99%
c 3 367.49 3307 71 70 26209 749718 128405 84% 14 14766191 8080 99%
c f 368.56 3307 71 70 26209 749718 128440 84% 14 14766191 8080 99%
c u 370.78 3308 71 70 26209 749718 128094 84% 14 14766191 8080 99%
c v 372.59 3312 71 70 26209 749718 127940 84% 14 14766191 8080 99%
c
c  seconds     reductions        redundant     irredundant
c            MB     restarts             trail         variables
c             level       conflicts          glue           remaining
c
c i 373.10 3312 71 70 26209 749760 127862 84% 14 14766191 8079 99%
c i 374.07 3313 71 70 26261 750656 128711 84% 14 14766191 8078 99%
c i 376.37 3313 71 70 26581 754093 131978 83% 14 14766191 8077 99%
c i 377.06 3313 71 70 26634 755122 132951 83% 14 14766191 8076 99%
c } 377.21 3313 71 70 26647 755260 133082 83% 14 14766191 8076 99%
c [ 377.21 3313 576 70 26647 755260 133082 77% 175 14766191 8076 99%
c - 388.00 3321 577 71 26653 766821 124532 77% 172 14744428 8076 99%
c i 394.48 3321 568 71 26659 774733 131178 77% 171 14744428 8075 99%
c B 400.77 3321 554 71 26660 780360 135855 77% 168 14744428 8075 99%
c - 410.60 3327 547 72 26661 788423 120699 77% 168 14740797 8075 99%
c - 435.97 3327 516 73 26675 810323 118803 78% 158 14740797 8075 99%
c i 436.70 3327 514 73 26675 810894 119270 78% 158 14740797 8074 99%
c caught signal 15 (SIGTERM)
c
c ---- [ profiling ] ---------------------------------------------------------
c
c         383.70   87.23 %  search
c         205.98   46.83 %  focused
c         177.72   40.40 %  stable
c          53.05   12.06 %  simplify
c          35.29    8.02 %  probe
c          23.97    5.45 %  vivify
c          19.43    4.42 %  reduce
c          12.51    2.84 %  walking
c           4.93    1.12 %  substitute
c           3.19    0.73 %  autarky
c           3.16    0.72 %  transitive
c           3.12    0.71 %  parse
c           2.34    0.53 %  failed
c           2.05    0.47 %  eliminate
c           0.89    0.20 %  ternary
c =============================================
c         439.87  100.00 %  total
c
c ---- [ statistics ] --------------------------------------------------------
c
latency 96780 264.792877
c conflicts:                           814225             1851.04 per second
c decisions:                          9599833               11.79 per conflict
c propagations:                     663341980          1508024    per second
c reductions:                              73            11154    interval
c rephased:                                39            20878    interval
c restarts:                             26675               30.52 interval
c MAB stats : 74 72 
c
c ---- [ resources ] ---------------------------------------------------------
c
c maximum-resident-set-size:       3754049536 bytes       3580 MB
c process-time:                         7m 19s             439.87 seconds
c raising signal 15 (SIGTERM)
